data;


param FN:= 0;
param D:= 100;
param U_Original:=
         1         1       -5.348652e-01
         2         1        3.389229e-02
         3         1       -8.873127e-01
         4         1        1.407788e+00
         5         1       -5.281211e-01
         6         1        6.520376e-01
         7         1       -1.547540e-01
         8         1       -2.835768e-01
         9         1       -4.271547e-01
        10         1        1.094956e+00
        11         1       -7.239900e-01
        12         1       -8.352998e-02
        13         1        1.551697e+00
        14         1        6.506539e-02
        15         1        5.743386e-01
        16         1        2.348074e-01
        17         1        1.177486e-01
        18         1       -7.514523e-02
        19         1       -6.156622e-01
        20         1        8.670155e-02
        21         1       -1.477440e+00
        22         1        2.434029e+00
        23         1       -1.231727e+00
        24         1       -3.697477e-01
        25         1        1.951189e+00
        26         1       -4.809107e-01
        27         1       -9.773686e-02
        28         1        4.063894e-01
        29         1       -8.508962e-01
        30         1       -6.264582e-01
        31         1        1.053026e+00
        32         1        6.477051e-01
        33         1       -1.028341e+00
        34         1        4.061216e-01
        35         1       -2.750322e-01
        36         1       -2.202648e+00
        37         1       -6.397682e-02
        38         1        8.734774e-01
        39         1        5.516228e-01
        40         1       -4.499513e-01
        41         1       -5.554008e-02
        42         1        1.316868e+00
        43         1        2.246974e+00
        44         1        6.004386e-01
        45         1       -9.495968e-01
        46         1        1.956191e+00
        47         1       -3.016576e-01
        48         1        2.594489e+00
        49         1       -1.609299e-01
        50         1        7.459153e-01
        51         1       -6.250426e-02
        52         1        5.385115e-01
        53         1       -9.335756e-01
        54         1       -1.002762e+00
        55         1        1.706192e+00
        56         1        1.606533e+00
        57         1       -2.737594e-01
        58         1        3.599819e-01
        59         1       -3.536984e-01
        60         1       -4.876993e-02
        61         1       -1.044728e+00
        62         1        1.852805e-01
        63         1       -5.629185e-01
        64         1       -9.383466e-01
        65         1        1.654851e-01
        66         1       -8.211155e-01
        67         1       -9.152853e-01
        68         1       -3.973567e-01
        69         1       -3.066920e-01
        70         1        8.507371e-01
        71         1       -6.587638e-02
        72         1        4.473100e-01
        73         1       -1.865364e+00
        74         1        4.046504e-02
        75         1       -1.725635e+00
        76         1       -1.640685e-01
        77         1        1.793974e-02
        78         1       -5.090223e-02
        79         1        7.628399e-01
        80         1        1.454175e+00
        81         1        1.206514e+00
        82         1        2.408843e+00
        83         1        6.153495e-01
        84         1       -7.465077e-01
        85         1       -3.787825e-01
        86         1       -4.363144e-01
        87         1        5.287425e-01
        88         1        3.828147e-01
        89         1       -1.413841e+00
        90         1        1.824258e-01
        91         1       -1.559017e-01
        92         1        7.663294e-01
        93         1       -1.357549e-01
        94         1        7.725768e-01
        95         1        7.251448e-01
        96         1       -3.340959e-01
        97         1       -1.935656e+00
        98         1       -1.521993e+00
        99         1       -3.250533e-01
       100         1       -5.042792e-01
         1         2       -4.747252e-01
         2         2       -9.040866e-01
         3         2       -1.852320e+00
         4         2       -3.773962e-01
         5         2       -5.729805e-01
         6         2       -1.340579e-01
         7         2        4.953563e-01
         8         2        4.666093e-01
         9         2        3.376271e-01
        10         2       -2.062950e-01
        11         2        3.405328e-01
        12         2       -7.177036e-01
        13         2        1.695268e-01
        14         2        1.040543e+00
        15         2        9.667684e-01
        16         2       -5.906406e-01
        17         2        1.175936e+00
        18         2       -1.379841e+00
        19         2        1.023820e-01
        20         2       -4.390471e-01
        21         2        1.057496e-01
        22         2       -1.079095e-01
        23         2       -8.309857e-01
        24         2       -3.845703e-01
        25         2        5.344280e-01
        26         2        1.139039e+00
        27         2        3.365761e-01
        28         2        2.678858e-01
        29         2       -3.942283e-01
        30         2       -4.387757e-01
        31         2       -1.715778e+00
        32         2        8.456515e-01
        33         2        3.720916e-01
        34         2       -2.477511e-01
        35         2        5.266378e-01
        36         2       -1.041730e+00
        37         2       -1.794784e+00
        38         2       -5.270088e-01
        39         2        9.643789e-01
        40         2       -4.364221e-01
        41         2       -1.057877e+00
        42         2       -1.763043e+00
        43         2        1.652056e+00
        44         2        2.338432e+00
        45         2       -1.290380e+00
        46         2        5.572061e-01
        47         2        6.533671e-01
        48         2       -3.542677e-02
        49         2       -1.603829e+00
        50         2        8.174273e-01
        51         2       -1.442724e+00
        52         2        1.395828e+00
        53         2        1.791546e-01
        54         2        3.298309e-01
        55         2        1.867327e+00
        56         2        2.447338e-01
        57         2       -1.005014e+00
        58         2        5.348340e-01
        59         2        1.266608e+00
        60         2       -1.306986e+00
        61         2       -4.675452e-01
        62         2       -9.260134e-01
        63         2       -1.006453e+00
        64         2       -9.877419e-01
        65         2       -1.285348e+00
        66         2        1.014346e+00
        67         2       -8.853186e-01
        68         2       -2.933092e-01
        69         2        1.127664e+00
        70         2        4.367039e-01
        71         2       -2.114957e-01
        72         2       -3.643174e-01
        73         2        6.514978e-01
        74         2       -8.321547e-01
        75         2       -1.248479e+00
        76         2        1.185922e+00
        77         2        4.994196e-01
        78         2       -3.332924e-01
        79         2        1.166629e+00
        80         2       -5.524019e-01
        81         2       -1.038855e-01
        82         2        1.043029e+00
        83         2        6.175323e-01
        84         2        7.758456e-01
        85         2        6.203348e-01
        86         2       -2.071952e+00
        87         2        7.327460e-01
        88         2       -9.547643e-01
        89         2       -9.385728e-01
        90         2       -4.227815e-01
        91         2        6.301175e-01
        92         2        4.051442e-01
        93         2        7.034265e-01
        94         2       -8.312521e-01
        95         2       -1.933184e+00
        96         2        1.115670e+00
        97         2        1.884892e+00
        98         2       -4.106814e-02
        99         2       -1.410588e+00
       100         2        5.295208e-01
         1         3       -1.475135e+00
         2         3       -1.046743e+00
         3         3        1.368343e+00
         4         3       -1.355485e+00
         5         3       -2.264671e+00
         6         3       -2.732396e-02
         7         3        3.102148e-02
         8         3        5.960343e-01
         9         3       -7.131790e-01
        10         3        9.409765e-02
        11         3       -1.011801e+00
        12         3       -1.854164e+00
        13         3       -4.735283e-01
        14         3        1.514205e+00
        15         3       -1.857770e+00
        16         3       -1.699992e-02
        17         3        9.405667e-01
        18         3        3.158620e-01
        19         3       -1.120083e+00
        20         3       -8.346929e-01
        21         3        2.258901e+00
        22         3        1.731674e+00
        23         3        6.327038e-01
        24         3       -1.171278e+00
        25         3        1.301085e+00
        26         3       -1.449223e+00
        27         3       -1.311236e+00
        28         3        1.078773e-02
        29         3       -5.248925e-01
        30         3       -1.249456e+00
        31         3       -1.963239e+00
        32         3       -1.382212e+00
        33         3       -1.031327e+00
        34         3       -4.201410e-01
        35         3        9.431482e-01
        36         3       -4.373514e-01
        37         3        1.016378e+00
        38         3       -4.567338e-02
        39         3        1.224623e-01
        40         3        3.069501e-01
        41         3        2.327560e+00
        42         3       -1.896195e+00
        43         3       -2.514936e-01
        44         3       -9.185462e-01
        45         3        4.598002e-01
        46         3       -4.844216e-01
        47         3       -2.896768e-01
        48         3        7.694398e-01
        49         3       -1.127257e+00
        50         3       -7.076146e-01
        51         3        4.764305e-01
        52         3        2.061550e-01
        53         3        1.423599e+00
        54         3        1.330978e+00
        55         3        7.366341e-01
        56         3        9.865546e-01
        57         3       -4.793337e-01
        58         3        1.597180e-01
        59         3       -5.820909e-01
        60         3        6.574639e-01
        61         3        1.063415e-01
        62         3       -1.124583e+00
        63         3        2.830714e-01
        64         3       -2.316218e-01
        65         3       -9.852772e-02
        66         3        2.120462e-01
        67         3        4.785912e-01
        68         3        5.094224e-01
        69         3        1.594037e-01
        70         3        1.706498e+00
        71         3        3.026460e-01
        72         3        2.170831e+00
        73         3       -9.783100e-02
        74         3        1.992439e+00
        75         3        3.096515e-01
        76         3       -9.899319e-01
        77         3        1.001637e+00
        78         3        2.986794e-01
        79         3       -5.659691e-01
        80         3        9.354533e-01
        81         3        6.796957e-01
        82         3        3.912217e-01
        83         3        1.001908e+00
        84         3        1.070687e+00
        85         3        1.008001e-01
        86         3        3.071139e-01
        87         3       -1.821869e-01
        88         3        1.761319e+00
        89         3        5.607114e-01
        90         3        1.241628e+00
        91         3        5.542616e-01
        92         3        1.583204e+00
        93         3       -3.661772e-01
        94         3       -1.648240e-01
        95         3        1.562472e+00
        96         3       -3.129990e-01
        97         3        2.257863e-01
        98         3       -1.412310e+00
        99         3        4.545273e-01
       100         3       -1.612712e+00
         1         4        6.287630e-01
         2         4        6.465971e-01
         3         4        6.746815e-01
         4         4       -9.518492e-02
         5         4       -6.367956e-01
         6         4       -1.992784e+00
         7         4        9.922942e-01
         8         4       -5.508039e-01
         9         4       -1.140353e+00
        10         4       -1.022945e+00
        11         4       -1.140036e+00
        12         4        1.624477e+00
        13         4       -6.475671e-01
        14         4       -1.056375e+00
        15         4       -1.459185e+00
        16         4        1.155242e+00
        17         4        2.466292e-01
        18         4        1.627003e-01
        19         4       -3.432787e-01
        20         4       -6.228493e-02
        21         4        6.456306e-01
        22         4        8.914462e-01
        23         4        4.285797e-01
        24         4        3.220665e+00
        25         4        2.091719e-01
        26         4       -6.703078e-01
        27         4        1.525367e-01
        28         4       -7.593393e-02
        29         4       -1.988926e-01
        30         4       -1.459853e+00
        31         4       -3.042834e-01
        32         4       -1.459270e+00
        33         4        8.824223e-01
        34         4       -3.925932e-01
        35         4       -6.143224e-01
        36         4       -6.410858e-01
        37         4        1.654110e-01
        38         4        7.728264e-01
        39         4        3.388386e-01
        40         4        8.069336e-02
        41         4        8.295957e-01
        42         4       -5.803375e-01
        43         4       -1.631824e-01
        44         4       -1.035472e+00
        45         4        1.137347e+00
        46         4       -5.757585e-01
        47         4       -5.906372e-01
        48         4       -2.762364e+00
        49         4       -7.700861e-01
        50         4        7.856118e-01
        51         4       -6.756506e-01
        52         4       -8.780242e-01
        53         4        1.179140e-01
        54         4       -8.355065e-02
        55         4       -6.917812e-01
        56         4        1.105672e+00
        57         4        4.860071e-01
        58         4       -1.014195e+00
        59         4        1.320684e+00
        60         4       -1.714351e+00
        61         4        4.839821e-02
        62         4       -2.108679e+00
        63         4        1.718326e+00
        64         4       -7.332730e-01
        65         4        1.785429e-01
        66         4       -1.897165e+00
        67         4        9.167410e-01
        68         4       -2.878034e-01
        69         4        8.060357e-02
        70         4       -2.082487e-01
        71         4       -7.745276e-01
        72         4        1.136817e+00
        73         4       -2.918019e-02
        74         4       -1.756546e-01
        75         4        8.659700e-01
        76         4       -6.073361e-01
        77         4        7.377561e-01
        78         4       -1.263145e+00
        79         4       -7.002880e-01
        80         4       -5.924400e-01
        81         4        9.215445e-01
        82         4       -9.226222e-01
        83         4        8.992580e-01
        84         4       -1.757949e+00
        85         4       -6.002624e-01
        86         4       -1.349881e+00
        87         4        3.966433e-01
        88         4        8.844504e-02
        89         4        3.674727e-02
        90         4        5.679420e-01
        91         4        5.898079e-01
        92         4        1.211284e+00
        93         4        1.584461e+00
        94         4       -1.931581e+00
        95         4        1.117556e+00
        96         4       -1.333857e+00
        97         4       -6.925471e-01
        98         4        6.107112e-01
        99         4        8.539177e-01
       100         4        2.107461e+00
         1         5       -1.372371e+00
         2         5        7.841043e-03
         3         5       -4.771855e-01
         4         5        1.450057e+00
         5         5        2.098238e+00
         6         5       -1.440107e+00
         7         5        1.034192e+00
         8         5        6.523837e-02
         9         5        8.541148e-01
        10         5       -3.583262e-01
        11         5       -4.498058e-01
        12         5        7.223424e-01
        13         5        6.365709e-01
        14         5       -6.859309e-01
        15         5        5.187099e-01
        16         5       -1.230364e+00
        17         5        8.278675e-01
        18         5       -8.035216e-01
        19         5       -6.208237e-01
        20         5       -8.654232e-01
        21         5        1.377250e+00
        22         5        1.784113e-01
        23         5        8.674537e-01
        24         5        1.912396e-01
        25         5        2.991646e-01
        26         5       -1.195024e+00
        27         5       -2.389628e-01
        28         5       -1.460150e+00
        29         5        1.223006e-01
        30         5       -2.899175e-01
        31         5        1.747390e-01
        32         5       -1.155135e+00
        33         5       -1.743999e+00
        34         5        1.949280e-01
        35         5        5.585914e-01
        36         5       -9.487643e-01
        37         5       -3.974345e-01
        38         5        2.039231e-01
        39         5        4.072341e-01
        40         5        1.421790e+00
        41         5       -1.803359e+00
        42         5       -1.523661e+00
        43         5       -1.343345e+00
        44         5        1.148235e-01
        45         5       -2.183695e-01
        46         5       -2.322537e-01
        47         5       -1.427099e+00
        48         5        5.270133e-01
        49         5        1.027297e-01
        50         5       -1.045536e+00
        51         5        1.199410e+00
        52         5        1.063367e+00
        53         5       -2.208518e-01
        54         5        2.433011e-01
        55         5        1.172595e+00
        56         5       -6.478513e-01
        57         5        7.669555e-01
        58         5        7.474558e-01
        59         5        2.979315e-01
        60         5       -9.395819e-01
        61         5       -1.308137e+00
        62         5        4.636718e-01
        63         5       -1.073036e-01
        64         5       -5.441475e-01
        65         5       -5.383055e-01
        66         5       -1.622294e+00
        67         5       -2.095194e-01
        68         5        1.408141e+00
        69         5        6.423763e-01
        70         5       -6.672927e-01
        71         5        1.174387e+00
        72         5        3.763174e-01
        73         5       -2.807315e-01
        74         5       -2.055096e+00
        75         5        6.179900e-01
        76         5       -8.773416e-01
        77         5        1.025580e+00
        78         5       -9.005090e-01
        79         5       -2.150757e-01
        80         5       -1.168916e+00
        81         5        1.929168e-02
        82         5       -8.997236e-02
        83         5        2.457219e-01
        84         5       -1.120598e+00
        85         5       -2.604941e+00
        86         5        7.783744e-02
        87         5        2.053758e+00
        88         5       -5.248394e-01
        89         5        2.752489e-01
        90         5       -1.219070e+00
        91         5        9.501923e-02
        92         5        2.088494e-01
        93         5       -1.068844e-01
        94         5        2.245210e+00
        95         5       -1.337197e+00
        96         5       -5.183687e-01
        97         5        8.494779e-01
        98         5        9.795823e-01
        99         5       -1.030259e+00
       100         5       -4.812390e-01
;
param X_Original:=
    1        1.165056e+00
    2       -2.931897e-01
    3       -1.212657e-01
    4       -1.200001e+00
    5        8.722799e-01
    6       -9.390388e-01
    7       -6.285426e-01
    8       -6.793701e-01
    9       -2.742150e+00
   10        4.306657e-01
   11       -3.202021e+00
   12       -2.827450e-01
   13       -2.425842e-01
   14        5.135214e-01
   15        7.187652e-01
   16        4.238224e-01
   17       -1.660727e+00
   18       -9.622638e-01
   19        6.578622e-01
   20       -5.957192e-01
   21        2.380996e+00
   22       -8.064467e-02
   23        5.791884e-02
   24        2.037954e+00
   25        3.315310e-01
   26        4.224439e-01
   27       -6.342438e-01
   28       -6.626574e-01
   29       -7.944791e-01
   30        5.736469e-01
   31        1.087678e+00
   32       -1.152363e+00
   33        3.056049e-01
   34       -1.150080e-01
   35       -1.685466e+00
   36       -2.082472e-01
   37       -8.426855e-01
   38       -5.432820e-01
   39        1.517386e+00
   40        5.900681e-01
   41        7.558322e-01
   42        1.009553e+00
   43       -3.069789e-01
   44       -9.104063e-01
   45        2.299271e-01
   46       -2.018427e-01
   47        6.632996e-01
   48       -1.152561e+00
   49       -2.940949e-01
   50       -5.980897e-01
   51       -1.087209e+00
   52       -9.142561e-01
   53        1.706321e+00
   54       -1.350545e-01
   55        1.202132e+00
   56       -2.484503e+00
   57       -7.564976e-02
   58        8.433962e-02
   59        1.307559e+00
   60        4.012333e-01
   61       -5.308759e-01
   62       -1.783235e+00
   63        2.149927e+00
   64        9.423519e-01
   65       -2.325538e+00
   66        1.289813e+00
   67        1.506784e+00
   68       -1.929897e-01
   69       -1.909903e-01
   70       -1.950833e-01
   71        7.197434e-01
   72       -1.204332e+00
   73        8.924781e-02
   74        3.812311e+00
   75        7.417390e-01
   76        1.959244e+00
   77        3.451598e-01
   78        1.528678e-01
   79       -1.222659e+00
   80       -9.288712e-01
   81        1.663282e+00
   82        5.086297e-01
   83       -1.486627e+00
   84        9.183960e-02
   85        2.066524e+00
   86        1.806629e+00
   87       -7.098822e-01
   88       -1.216666e-01
   89       -9.610682e-01
   90       -2.802614e-01
   91        6.408460e-02
   92       -6.092584e-01
   93        3.913024e-01
   94       -1.384139e+00
   95       -5.552302e-01
   96        1.267684e+00
   97       -2.721780e+00
   98        3.110007e-01
   99       -3.262672e-01
  100       -5.752120e-01
;
param outliervec_original :=
    1    0
    2    1
    3    1
    4    1
    5    1
    6    1
    7    1
    8    1
    9    0
   10    1
   11    1
   12    0
   13    1
   14    1
   15    1
   16    1
   17    1
   18    1
   19    1
   20    1
   21    1
   22    1
   23    1
   24    0
   25    1
   26    1
   27    0
   28    1
   29    1
   30    1
   31    1
   32    0
   33    1
   34    1
   35    1
   36    1
   37    1
   38    1
   39    1
   40    1
   41    1
   42    1
   43    1
   44    1
   45    1
   46    1
   47    1
   48    1
   49    1
   50    1
   51    0
   52    1
   53    1
   54    1
   55    1
   56    1
   57    1
   58    1
   59    1
   60    1
   61    1
   62    1
   63    0
   64    1
   65    1
   66    1
   67    0
   68    1
   69    1
   70    1
   71    1
   72    1
   73    1
   74    0
   75    1
   76    1
   77    1
   78    0
   79    1
   80    1
   81    0
   82    1
   83    1
   84    1
   85    0
   86    1
   87    1
   88    1
   89    1
   90    1
   91    1
   92    1
   93    1
   94    1
   95    1
   96    1
   97    0
   98    1
   99    1
  100    1
;
param d:= 57;
param r:=5;
param p:=0.860000;
param M:=1000;
param U:=
         1         1       -5.348652e-01
         2         1        3.389229e-02
         3         1        1.407788e+00
         4         1       -1.547540e-01
         5         1       -2.835768e-01
         6         1       -4.271547e-01
         7         1        1.094956e+00
         8         1       -8.352998e-02
         9         1        1.551697e+00
        10         1        6.506539e-02
        11         1        1.177486e-01
        12         1        8.670155e-02
        13         1       -1.231727e+00
        14         1       -3.697477e-01
        15         1        1.951189e+00
        16         1       -9.773686e-02
        17         1       -8.508962e-01
        18         1        6.477051e-01
        19         1       -1.028341e+00
        20         1        4.061216e-01
        21         1       -2.750322e-01
        22         1       -2.202648e+00
        23         1        1.316868e+00
        24         1        2.246974e+00
        25         1        1.956191e+00
        26         1       -3.016576e-01
        27         1        2.594489e+00
        28         1       -1.609299e-01
        29         1        7.459153e-01
        30         1       -6.250426e-02
        31         1        5.385115e-01
        32         1       -9.335756e-01
        33         1       -1.002762e+00
        34         1       -2.737594e-01
        35         1       -4.876993e-02
        36         1        1.852805e-01
        37         1       -5.629185e-01
        38         1       -9.383466e-01
        39         1       -9.152853e-01
        40         1       -3.973567e-01
        41         1       -3.066920e-01
        42         1       -1.865364e+00
        43         1        4.046504e-02
        44         1       -1.725635e+00
        45         1        1.793974e-02
        46         1       -5.090223e-02
        47         1        7.628399e-01
        48         1        1.206514e+00
        49         1        2.408843e+00
        50         1       -7.465077e-01
        51         1       -3.787825e-01
        52         1       -4.363144e-01
        53         1       -1.559017e-01
        54         1       -1.357549e-01
        55         1        7.725768e-01
        56         1       -1.935656e+00
        57         1       -5.042792e-01
         1         2       -4.747252e-01
         2         2       -9.040866e-01
         3         2       -3.773962e-01
         4         2        4.953563e-01
         5         2        4.666093e-01
         6         2        3.376271e-01
         7         2       -2.062950e-01
         8         2       -7.177036e-01
         9         2        1.695268e-01
        10         2        1.040543e+00
        11         2        1.175936e+00
        12         2       -4.390471e-01
        13         2       -8.309857e-01
        14         2       -3.845703e-01
        15         2        5.344280e-01
        16         2        3.365761e-01
        17         2       -3.942283e-01
        18         2        8.456515e-01
        19         2        3.720916e-01
        20         2       -2.477511e-01
        21         2        5.266378e-01
        22         2       -1.041730e+00
        23         2       -1.763043e+00
        24         2        1.652056e+00
        25         2        5.572061e-01
        26         2        6.533671e-01
        27         2       -3.542677e-02
        28         2       -1.603829e+00
        29         2        8.174273e-01
        30         2       -1.442724e+00
        31         2        1.395828e+00
        32         2        1.791546e-01
        33         2        3.298309e-01
        34         2       -1.005014e+00
        35         2       -1.306986e+00
        36         2       -9.260134e-01
        37         2       -1.006453e+00
        38         2       -9.877419e-01
        39         2       -8.853186e-01
        40         2       -2.933092e-01
        41         2        1.127664e+00
        42         2        6.514978e-01
        43         2       -8.321547e-01
        44         2       -1.248479e+00
        45         2        4.994196e-01
        46         2       -3.332924e-01
        47         2        1.166629e+00
        48         2       -1.038855e-01
        49         2        1.043029e+00
        50         2        7.758456e-01
        51         2        6.203348e-01
        52         2       -2.071952e+00
        53         2        6.301175e-01
        54         2        7.034265e-01
        55         2       -8.312521e-01
        56         2        1.884892e+00
        57         2        5.295208e-01
         1         3       -1.475135e+00
         2         3       -1.046743e+00
         3         3       -1.355485e+00
         4         3        3.102148e-02
         5         3        5.960343e-01
         6         3       -7.131790e-01
         7         3        9.409765e-02
         8         3       -1.854164e+00
         9         3       -4.735283e-01
        10         3        1.514205e+00
        11         3        9.405667e-01
        12         3       -8.346929e-01
        13         3        6.327038e-01
        14         3       -1.171278e+00
        15         3        1.301085e+00
        16         3       -1.311236e+00
        17         3       -5.248925e-01
        18         3       -1.382212e+00
        19         3       -1.031327e+00
        20         3       -4.201410e-01
        21         3        9.431482e-01
        22         3       -4.373514e-01
        23         3       -1.896195e+00
        24         3       -2.514936e-01
        25         3       -4.844216e-01
        26         3       -2.896768e-01
        27         3        7.694398e-01
        28         3       -1.127257e+00
        29         3       -7.076146e-01
        30         3        4.764305e-01
        31         3        2.061550e-01
        32         3        1.423599e+00
        33         3        1.330978e+00
        34         3       -4.793337e-01
        35         3        6.574639e-01
        36         3       -1.124583e+00
        37         3        2.830714e-01
        38         3       -2.316218e-01
        39         3        4.785912e-01
        40         3        5.094224e-01
        41         3        1.594037e-01
        42         3       -9.783100e-02
        43         3        1.992439e+00
        44         3        3.096515e-01
        45         3        1.001637e+00
        46         3        2.986794e-01
        47         3       -5.659691e-01
        48         3        6.796957e-01
        49         3        3.912217e-01
        50         3        1.070687e+00
        51         3        1.008001e-01
        52         3        3.071139e-01
        53         3        5.542616e-01
        54         3       -3.661772e-01
        55         3       -1.648240e-01
        56         3        2.257863e-01
        57         3       -1.612712e+00
         1         4        6.287630e-01
         2         4        6.465971e-01
         3         4       -9.518492e-02
         4         4        9.922942e-01
         5         4       -5.508039e-01
         6         4       -1.140353e+00
         7         4       -1.022945e+00
         8         4        1.624477e+00
         9         4       -6.475671e-01
        10         4       -1.056375e+00
        11         4        2.466292e-01
        12         4       -6.228493e-02
        13         4        4.285797e-01
        14         4        3.220665e+00
        15         4        2.091719e-01
        16         4        1.525367e-01
        17         4       -1.988926e-01
        18         4       -1.459270e+00
        19         4        8.824223e-01
        20         4       -3.925932e-01
        21         4       -6.143224e-01
        22         4       -6.410858e-01
        23         4       -5.803375e-01
        24         4       -1.631824e-01
        25         4       -5.757585e-01
        26         4       -5.906372e-01
        27         4       -2.762364e+00
        28         4       -7.700861e-01
        29         4        7.856118e-01
        30         4       -6.756506e-01
        31         4       -8.780242e-01
        32         4        1.179140e-01
        33         4       -8.355065e-02
        34         4        4.860071e-01
        35         4       -1.714351e+00
        36         4       -2.108679e+00
        37         4        1.718326e+00
        38         4       -7.332730e-01
        39         4        9.167410e-01
        40         4       -2.878034e-01
        41         4        8.060357e-02
        42         4       -2.918019e-02
        43         4       -1.756546e-01
        44         4        8.659700e-01
        45         4        7.377561e-01
        46         4       -1.263145e+00
        47         4       -7.002880e-01
        48         4        9.215445e-01
        49         4       -9.226222e-01
        50         4       -1.757949e+00
        51         4       -6.002624e-01
        52         4       -1.349881e+00
        53         4        5.898079e-01
        54         4        1.584461e+00
        55         4       -1.931581e+00
        56         4       -6.925471e-01
        57         4        2.107461e+00
         1         5       -1.372371e+00
         2         5        7.841043e-03
         3         5        1.450057e+00
         4         5        1.034192e+00
         5         5        6.523837e-02
         6         5        8.541148e-01
         7         5       -3.583262e-01
         8         5        7.223424e-01
         9         5        6.365709e-01
        10         5       -6.859309e-01
        11         5        8.278675e-01
        12         5       -8.654232e-01
        13         5        8.674537e-01
        14         5        1.912396e-01
        15         5        2.991646e-01
        16         5       -2.389628e-01
        17         5        1.223006e-01
        18         5       -1.155135e+00
        19         5       -1.743999e+00
        20         5        1.949280e-01
        21         5        5.585914e-01
        22         5       -9.487643e-01
        23         5       -1.523661e+00
        24         5       -1.343345e+00
        25         5       -2.322537e-01
        26         5       -1.427099e+00
        27         5        5.270133e-01
        28         5        1.027297e-01
        29         5       -1.045536e+00
        30         5        1.199410e+00
        31         5        1.063367e+00
        32         5       -2.208518e-01
        33         5        2.433011e-01
        34         5        7.669555e-01
        35         5       -9.395819e-01
        36         5        4.636718e-01
        37         5       -1.073036e-01
        38         5       -5.441475e-01
        39         5       -2.095194e-01
        40         5        1.408141e+00
        41         5        6.423763e-01
        42         5       -2.807315e-01
        43         5       -2.055096e+00
        44         5        6.179900e-01
        45         5        1.025580e+00
        46         5       -9.005090e-01
        47         5       -2.150757e-01
        48         5        1.929168e-02
        49         5       -8.997236e-02
        50         5       -1.120598e+00
        51         5       -2.604941e+00
        52         5        7.783744e-02
        53         5        9.501923e-02
        54         5       -1.068844e-01
        55         5        2.245210e+00
        56         5        8.494779e-01
        57         5       -4.812390e-01
;

param theta:=
    1        2.750131e-01
    2       -3.984120e-01
    3        6.721917e-01
    4        9.274943e-01
    5       -1.115889e+00
;
param X_true:=
    1        1.165056e+00
    2        2.568730e-01
    3       -2.080013e+00
    4       -4.527591e-01
    5       -4.469069e-01
    6       -2.742150e+00
    7       -1.023541e-01
    8       -2.827450e-01
    9       -1.270064e+00
   10        4.068063e-01
   11       -4.989447e-01
   12        5.456397e-01
   13       -1.528451e-01
   14        2.037954e+00
   15        1.058430e+00
   16       -6.342438e-01
   17       -7.507165e-01
   18       -1.152363e+00
   19        1.640249e+00
   20       -6.536656e-01
   21       -8.445866e-01
   22       -2.059067e-02
   23        9.519440e-01
   24        1.138370e+00
   25       -2.844869e-01
   26        5.066846e-01
   27       -1.905322e+00
   28       -9.918914e-01
   29        1.299164e+00
   30       -1.087209e+00
   31       -2.270404e+00
   32        9.846189e-01
   33        1.385011e-01
   34       -4.021508e-01
   35        4.076666e-01
   36       -2.809240e+00
   37        2.149927e+00
   38       -9.312173e-02
   39        1.506784e+00
   40       -1.488257e+00
   41       -1.068531e+00
   42       -5.521245e-01
   43        3.812311e+00
   44        3.445556e-01
   45        1.908196e-02
   46        1.528678e-01
   47       -1.044960e+00
   48        1.663282e+00
   49       -2.454432e-01
   50       -1.747233e-01
   51        2.066524e+00
   52       -4.269274e-01
   53        5.196612e-01
   54        1.025120e+00
   55       -3.864080e+00
   56       -2.721780e+00
   57        1.057965e+00
;
param X:=
    1        1.165056e+00
    2       -2.931897e-01
    3       -1.200001e+00
    4       -6.285426e-01
    5       -6.793701e-01
    6       -2.742150e+00
    7        4.306657e-01
    8       -2.827450e-01
    9       -2.425842e-01
   10        5.135214e-01
   11       -1.660727e+00
   12       -5.957192e-01
   13        5.791884e-02
   14        2.037954e+00
   15        3.315310e-01
   16       -6.342438e-01
   17       -7.944791e-01
   18       -1.152363e+00
   19        3.056049e-01
   20       -1.150080e-01
   21       -1.685466e+00
   22       -2.082472e-01
   23        1.009553e+00
   24       -3.069789e-01
   25       -2.018427e-01
   26        6.632996e-01
   27       -1.152561e+00
   28       -2.940949e-01
   29       -5.980897e-01
   30       -1.087209e+00
   31       -9.142561e-01
   32        1.706321e+00
   33       -1.350545e-01
   34       -7.564976e-02
   35        4.012333e-01
   36       -1.783235e+00
   37        2.149927e+00
   38        9.423519e-01
   39        1.506784e+00
   40       -1.929897e-01
   41       -1.909903e-01
   42        8.924781e-02
   43        3.812311e+00
   44        7.417390e-01
   45        3.451598e-01
   46        1.528678e-01
   47       -1.222659e+00
   48        1.663282e+00
   49        5.086297e-01
   50        9.183960e-02
   51        2.066524e+00
   52        1.806629e+00
   53        6.408460e-02
   54        3.913024e-01
   55       -1.384139e+00
   56       -2.721780e+00
   57       -5.752120e-01
;
param outliervec:=
    1    0
    2    1
    3    1
    4    1
    5    1
    6    0
    7    1
    8    0
    9    1
   10    1
   11    1
   12    1
   13    1
   14    0
   15    1
   16    0
   17    1
   18    0
   19    1
   20    1
   21    1
   22    1
   23    1
   24    1
   25    1
   26    1
   27    1
   28    1
   29    1
   30    0
   31    1
   32    1
   33    1
   34    1
   35    1
   36    1
   37    0
   38    1
   39    0
   40    1
   41    1
   42    1
   43    0
   44    1
   45    1
   46    0
   47    1
   48    0
   49    1
   50    1
   51    0
   52    1
   53    1
   54    1
   55    1
   56    0
   57    1
; 
param greedy_time :=         4.772018e-01
;